NAME : matsim_points
COMMENT : Points from MATSim
TYPE : TSP
DIMENSION : 16
EDGE_WEIGHT_TYPE : EUC_2D
NODE_COORD_SECTION
1 0 800
2 0 900
3 0 1000
4 0 1100
5 100 900
6 100 1000
7 100 1100
8 -100 900
9 -100 1000
10 -100 1100
11 200 900
12 200 1000
13 200 1100
14 -200 900
15 -200 1000
16 -200 1100
EOF
